# Random Circle Problem
param d := 0.05; 
param n := 10; 
param radius := 2.00; 
param v0 := 
1 5.62
2 5.46
3 5.87
4 5.81
5 5.02
6 4.94
7 5.63
8 5.92
9 5.30
10 5.04
;
param cap := 
1 3.18484
2 3.92225
3 4.37207
4 5.38864
5 5.82880
6 0.01457
7 0.60094
8 1.18646
9 1.41700
10 2.34272
;
param x0 := 
1 2.00
2 1.62
3 0.62
4 -0.62
5 -1.62
6 -2.00
7 -1.62
8 -0.62
9 0.62
10 1.62
;
param y0 := 
1 -0.00
2 1.18
3 1.90
4 1.90
5 1.18
6 0.00
7 -1.18
8 -1.90
9 -1.90
10 -1.18
;
